NAME: random-77-4930
TYPE: TSP
COMMENT: size=77 seed=4930
DIMENSION: 156
EDGE_WEIGHT_TYPE: EUC_2D
NODE_COORD_SECTION
+0 510 314
-0 510 314
+1 878 847
-1 463 678
+2 234 994
-2 370 130
+3 448 70
-3 749 473
+4 834 31
-4 370 297
+5 264 75
-5 129 221
+6 163 431
-6 979 259
+7 530 518
-7 121 401
+8 589 912
-8 984 844
+9 124 907
-9 875 283
+10 911 539
-10 876 522
+11 533 224
-11 929 63
+12 852 313
-12 564 605
+13 156 235
-13 403 160
+14 814 305
-14 46 984
+15 487 291
-15 955 236
+16 922 845
-16 746 231
+17 256 829
-17 344 559
+18 748 355
-18 133 37
+19 157 318
-19 412 511
+20 543 574
-20 504 12
+21 650 709
-21 687 48
+22 661 280
-22 437 420
+23 340 350
-23 2 390
+24 823 654
-24 771 511
+25 674 228
-25 525 327
+26 631 694
-26 725 396
+27 222 41
-27 647 47
+28 952 773
-28 790 443
+29 871 14
-29 859 139
+30 944 619
-30 362 266
+31 946 387
-31 9 146
+32 103 105
-32 376 992
+33 833 87
-33 716 113
+34 789 791
-34 612 234
+35 577 460
-35 913 700
+36 871 995
-36 947 222
+37 976 604
-37 271 654
+38 563 22
-38 489 396
+39 42 930
-39 242 707
+40 403 424
-40 497 806
+41 407 505
-41 606 20
+42 243 386
-42 218 618
+43 852 387
-43 470 453
+44 691 968
-44 970 842
+45 269 647
-45 724 599
+46 546 583
-46 830 490
+47 639 732
-47 939 622
+48 77 540
-48 528 754
+49 630 237
-49 715 305
+50 708 83
-50 438 145
+51 748 328
-51 727 898
+52 847 683
-52 869 23
+53 907 41
-53 265 614
+54 731 109
-54 298 432
+55 454 804
-55 602 993
+56 811 0
-56 543 616
+57 79 137
-57 564 411
+58 813 278
-58 810 351
+59 396 844
-59 758 731
+60 185 101
-60 462 108
+61 990 686
-61 205 661
+62 694 244
-62 626 752
+63 76 715
-63 699 397
+64 282 145
-64 713 439
+65 52 755
-65 868 306
+66 368 749
-66 282 156
+67 257 198
-67 792 113
+68 113 511
-68 956 410
+69 277 712
-69 446 523
+70 148 575
-70 805 201
+71 379 803
-71 856 36
+72 126 886
-72 669 251
+73 400 441
-73 13 363
+74 483 997
-74 793 734
+75 786 303
-75 800 446
+76 134 917
-76 107 613
+77 730 174
-77 77 19
PRECEDENCE_SECTION
+0 -0
+1 -1
+2 -2
+3 -3
+4 -4
+5 -5
+6 -6
+7 -7
+8 -8
+9 -9
+10 -10
+11 -11
+12 -12
+13 -13
+14 -14
+15 -15
+16 -16
+17 -17
+18 -18
+19 -19
+20 -20
+21 -21
+22 -22
+23 -23
+24 -24
+25 -25
+26 -26
+27 -27
+28 -28
+29 -29
+30 -30
+31 -31
+32 -32
+33 -33
+34 -34
+35 -35
+36 -36
+37 -37
+38 -38
+39 -39
+40 -40
+41 -41
+42 -42
+43 -43
+44 -44
+45 -45
+46 -46
+47 -47
+48 -48
+49 -49
+50 -50
+51 -51
+52 -52
+53 -53
+54 -54
+55 -55
+56 -56
+57 -57
+58 -58
+59 -59
+60 -60
+61 -61
+62 -62
+63 -63
+64 -64
+65 -65
+66 -66
+67 -67
+68 -68
+69 -69
+70 -70
+71 -71
+72 -72
+73 -73
+74 -74
+75 -75
+76 -76
+77 -77
EOF
